SCIP version 5.0.0 [precision: 8 byte] [memory: block] [mode: optimized] [LP solver: NONE] [GitHash: 3bbd232]
Copyright (C) 2002-2017 Konrad-Zuse-Zentrum fuer Informationstechnik Berlin (ZIB)

External codes: 
  Readline EditLine w  GNU library for command line editing (gnu.org/s/readline)
  CppAD 20160000.1     Algorithmic Differentiation of C++ algorithms developed by B. Bell (www.coin-or.org/CppAD)
  ZLIB 1.2.5           General purpose compression library by J. Gailly and M. Adler (zlib.net)
  GMP 6.1.2            GNU Multiple Precision Arithmetic Library developed by T. Granlund (gmplib.org)

user parameter file <scip.set> not found - using default parameters

read problem <../../Split_data/output/breast/4/0_sample_breast.logreg>
============

File name	:	../../Split_data/output/breast/4/0_sample_breast.logreg
Problem name 	:	0_sample_breast
Number of data	:	155
Number of var	:	33
The given data has linear independence

[dim=1] time: 0.004234
[dim=2] time: 0.008501
[dim=3] time: 0.01375
[dim=4] time: 0.018304
[dim=5] time: 0.022576
[dim=6] time: 0.026643
[dim=7] time: 0.03058
[dim=8] time: 0.034107
[dim=9] time: 0.037778
[dim=10] Time of forward = 0.040949sec.
AIC: 129.707
k: 9

[dim=33] time: 0.012814
[dim=32] time: 0.024528
[dim=31] time: 0.035784
[dim=30] time: 0.043379
[dim=29] time: 0.054712
[dim=28] time: 0.061872
[dim=27] time: 0.070598
[dim=26] time: 0.077986
[dim=25] time: 0.085675
[dim=24] Time of backward = 0.092356sec.
AIC: 116.363
k: 25
